myMap= 
[|-1, -1, -1,  0, -1,  0, -1, 13, -1,  0, -1, -1, -1,
| -1, -1,  7, -1,  8, -1,  0, -1,  0, -1,  0, -1, -1,
| -1,  5, -1,  0, -1,  0, -1,  0, -1,  0, -1,  0, -1,
|  3, -1,  0, -1, 30, -1, -1, -1, 34, -1,  0, -1, 18,
| -1,  0, -1,  0, -1,  0, -1,  0, -1,  0, -1,  0, -1,
| -1, -1,  1, -1, 26, -1,  0, -1, 36, -1,  0, -1, -1,
| -1, -1, -1,  0, -1,  0, -1,  0, -1, 22, -1, -1, -1 |]